<number of tasks>
30

<cycle time>
54

<task times>
1 8
2 7
3 19
4 10
5 2
6 6
7 14
8 10
9 1
10 4
11 14
12 15
13 5
14 12
15 9
16 10
17 2
18 10
19 18
20 16
21 21
22 14
23 16
24 7
25 17
26 9
27 25
28 7
29 14
30 2

<precedence relations>
1,4
1,5
2,11
2,12
3,16
3,17
4,7
5,6
6,7
7,8
8,9
9,26
10,24
12,13
13,14
14,15
14,20
15,22
16,20
17,18
18,19
20,21
20,24
21,22
22,23
23,27
24,25
25,26
26,27
27,28
27,29
29,30

<setup times forward>
1,4:2
1,5:2
1,11:1
1,14:2
1,15:1
1,16:2
1,17:2
1,18:2
1,21:1
1,22:1
1,23:1
1,24:1
1,25:1
2,4:2
2,5:2
2,6:2
2,8:1
2,9:1
2,11:1
2,16:2
2,17:2
2,18:2
3,4:2
3,5:2
3,6:2
3,8:1
3,9:1
3,11:1
3,14:2
3,15:1
3,16:2
3,17:2
4,2:2
4,3:2
4,7:2
4,10:2
4,11:1
4,12:2
4,13:2
4,15:1
4,19:2
4,20:2
4,21:1
4,22:3
4,23:3
4,24:1
4,25:1
5,2:2
5,3:2
5,10:2
5,11:1
5,12:2
5,13:2
5,15:1
5,19:2
5,20:2
5,21:1
5,22:3
5,23:3
5,24:1
5,25:1
6,2:2
6,3:2
6,7:2
6,10:2
6,11:1
6,12:2
6,13:2
6,15:1
6,19:2
6,20:2
6,21:1
6,22:3
6,23:3
6,24:1
6,25:1
7,8:1
7,11:1
7,14:2
7,15:1
7,16:2
7,17:2
7,18:2
7,21:1
7,22:1
7,23:1
7,24:1
7,25:1
8,2:1
8,3:1
8,10:1
8,11:2
8,12:1
8,13:1
8,14:3
8,15:2
8,16:3
8,17:3
8,18:3
8,19:1
8,20:1
8,21:2
8,24:2
8,25:2
9,2:1
9,3:1
9,10:1
9,11:2
9,12:1
9,13:1
9,14:3
9,15:2
9,16:3
9,17:3
9,18:3
9,19:1
9,20:1
9,21:2
9,24:2
9,25:2
10,4:2
10,5:2
10,6:2
10,8:1
10,9:1
10,11:1
10,14:2
10,15:1
10,16:2
10,17:2
10,18:2
10,21:1
10,22:1
10,23:1
10,24:1
11,1:1
11,3:1
11,4:1
11,5:1
11,6:1
11,7:1
11,8:2
11,9:2
11,10:1
11,12:1
11,13:1
11,14:1
11,16:1
11,17:1
11,18:1
11,19:1
11,20:1
11,22:2
11,23:2
11,26:2
11,27:1
11,28:1
11,29:1
11,30:1
12,4:2
12,5:2
12,6:2
12,8:1
12,9:1
12,11:1
12,16:2
12,17:2
12,18:2
13,4:2
13,5:2
13,6:2
13,8:1
13,9:1
13,11:1
13,14:2
13,16:2
13,17:2
13,18:2
14,1:2
14,3:2
14,7:2
14,8:3
14,9:3
14,10:2
14,11:1
14,15:1
14,19:2
14,20:2
15,1:1
15,3:1
15,4:1
15,5:1
15,6:1
15,7:1
15,8:2
15,9:2
15,10:1
15,16:1
15,17:1
15,18:1
15,19:1
15,20:1
15,22:2
15,26:2
16,1:2
16,2:2
16,7:2
16,8:3
16,9:3
16,10:2
16,11:1
16,12:2
16,13:2
16,15:1
16,19:2
16,20:2
17,1:2
17,2:2
17,7:2
17,8:3
17,9:3
17,10:2
17,11:1
17,12:2
17,13:2
17,15:1
17,20:2
17,21:1
17,22:3
17,23:3
17,24:1
17,25:1
17,26:3
17,27:2
17,28:2
17,29:2
17,30:2
18,1:2
18,2:2
18,7:2
18,8:3
18,9:3
18,10:2
18,11:1
18,12:2
18,13:2
18,15:1
18,19:2
18,20:2
18,21:1
18,22:3
18,23:3
18,24:1
18,25:1
18,26:3
18,27:2
18,28:2
18,29:2
18,30:2
19,4:2
19,5:2
19,6:2
19,8:1
19,9:1
19,11:1
19,14:2
19,15:1
19,16:2
19,21:1
19,22:1
19,23:1
19,24:1
19,25:1
19,26:1
20,4:2
20,5:2
20,6:2
20,8:1
20,9:1
20,11:1
20,15:1
20,17:2
20,18:2
20,21:1
20,24:1
21,1:1
21,4:1
21,5:1
21,6:1
21,7:1
21,8:2
21,9:2
21,10:1
21,17:1
21,18:1
21,19:1
21,22:2
21,26:2
22,1:1
22,4:3
22,5:3
22,6:3
22,7:1
22,10:1
22,11:2
22,17:3
22,18:3
22,19:1
22,24:2
22,25:2
23,1:1
23,4:3
23,5:3
23,6:3
23,7:1
23,10:1
23,11:2
23,17:3
23,18:3
23,19:1
23,24:2
23,25:2
23,27:1
24,1:1
24,4:1
24,5:1
24,6:1
24,7:1
24,8:2
24,9:2
24,17:1
24,18:1
24,19:1
24,22:2
24,23:2
25,1:1
25,4:1
25,5:1
25,6:1
25,7:1
25,8:2
25,9:2
25,17:1
25,18:1
25,19:1
25,22:2
25,23:2
25,26:2
26,11:2
26,15:2
26,17:3
26,18:3
26,19:1
26,21:2
26,27:1
27,11:1
27,17:2
27,18:2
28,11:1
28,17:2
28,18:2
29,11:1
29,17:2
29,18:2
30,11:1
30,17:2
30,18:2

<setup times backward>
1,22:1
1,23:1
2,8:1
2,9:1
3,8:1
3,9:1
4,1:2
4,2:2
4,3:2
4,10:2
4,11:1
4,12:2
4,13:2
4,15:1
4,19:2
4,20:2
4,21:1
4,22:3
4,23:3
4,24:1
4,25:1
5,1:2
5,2:2
5,3:2
5,10:2
5,11:1
5,12:2
5,13:2
5,15:1
5,19:2
5,20:2
5,21:1
5,22:3
5,23:3
5,24:1
5,25:1
6,1:2
6,2:2
6,3:2
6,10:2
6,11:1
6,12:2
6,13:2
6,15:1
6,19:2
6,20:2
6,21:1
6,22:3
6,23:3
6,24:1
6,25:1
7,22:1
7,23:1
10,8:1
10,9:1
10,22:1
10,23:1
11,1:1
11,2:1
11,3:1
11,7:1
11,8:2
11,9:2
11,10:1
11,12:1
11,13:1
11,19:1
11,20:1
11,22:2
11,23:2
11,26:2
11,27:1
11,28:1
11,29:1
11,30:1
12,8:1
12,9:1
13,8:1
13,9:1
14,1:2
14,2:2
14,3:2
14,7:2
14,8:3
14,9:3
14,10:2
14,11:1
14,12:2
14,13:2
14,19:2
15,1:1
15,2:1
15,3:1
15,7:1
15,8:2
15,9:2
15,10:1
15,12:1
15,13:1
15,19:1
15,20:1
15,26:2
16,1:2
16,2:2
16,3:2
16,7:2
16,8:3
16,9:3
16,10:2
16,11:1
16,12:2
16,13:2
16,15:1
16,19:2
17,1:2
17,2:2
17,3:2
17,7:2
17,8:3
17,9:3
17,10:2
17,11:1
17,12:2
17,13:2
17,15:1
17,20:2
17,21:1
17,22:3
17,23:3
17,24:1
17,25:1
17,26:3
17,27:2
17,28:2
17,29:2
17,30:2
18,1:2
18,2:2
18,3:2
18,7:2
18,8:3
18,9:3
18,10:2
18,11:1
18,12:2
18,13:2
18,15:1
18,20:2
18,21:1
18,22:3
18,23:3
18,24:1
18,25:1
18,26:3
18,27:2
18,28:2
18,29:2
18,30:2
19,8:1
19,9:1
19,22:1
19,23:1
19,26:1
20,8:1
20,9:1
21,1:1
21,2:1
21,3:1
21,7:1
21,8:2
21,9:2
21,10:1
21,12:1
21,13:1
21,19:1
21,20:1
21,26:2
24,1:1
24,2:1
24,3:1
24,7:1
24,8:2
24,9:2
24,10:1
24,12:1
24,13:1
24,19:1
24,20:1
24,22:2
24,23:2
25,1:1
25,2:1
25,3:1
25,7:1
25,8:2
25,9:2
25,10:1
25,12:1
25,13:1
25,19:1
25,20:1
25,22:2
25,23:2
27,8:1
27,9:1
27,22:1
27,23:1
27,26:1
28,8:1
28,9:1
28,22:1
28,23:1
28,26:1
29,8:1
29,9:1
29,22:1
29,23:1
29,26:1
30,8:1
30,9:1
30,22:1
30,23:1
30,26:1

<end>

<optimal SALBP-1 value>
7


<rand seed>
467321153

